842
617343 287968 463219 150153 40331 857990 288773 669174 808974 51432 794512 178566 366338 798630 220181 749435 638251 59165 840614 966456 618113 327463 62569 125071 861926 90635 898078 860903 346508 93800 983744 826991 556364 49434 600519 750309 767806 550128 237479 317717 309970 755071 5487 158524 913611 180142 193046 466907 87144 940746 211085 181596 922211 15804 930686 614975 786024 1437 475764 486598 18659 794391 804766 652392 660278 345036 179239 355216 519445 44233 296981 995991 222597 612335 163559 32118 992386 236820 668681 674754 51410 610176 899049 836506 899814 136031 20227 51081 708739 313012 423442 239262 611106 748922 33535 324100 701509 706803 325860 171662 212942 555290 729642 86708 539279 457811 34329 457232 833791 36107 401905 460765 121589 763007 636761 225255 106134 136817 391681 431666 182134 35896 66559 809855 689198 703077 599091 523798 753279 677873 707228 246156 22333 790252 173168 933502 591824 459781 855932 41621 51412 510117 279029 977103 239089 902607 413281 642279 284964 73185 691060 36328 810179 754344 83709 260677 443431 927839 361426 526226 641470 706731 947986 918998 688502 441184 826539 80666 482029 147081 33129 7794 998023 581426 530569 945805 875281 220939 805869 914888 971177 661393 140085 753781 644117 225250 894924 870351 535502 952406 99537 809560 630017 773267 692004 117597 293298 451963 800168 335955 926608 311312 515305 269014 198636 165958 423202 532454 150428 143774 991639 738789 959010 85639 40402 628013 915422 806109 354444 912795 919976 105534 501495 890801 305590 366223 72320 781644 680421 391765 648849 473309 238073 187384 219656 373979 573782 451270 246629 48415 264917 376991 659872 880872 529264 46198 888071 851673 424524 504378 620828 159033 528609 404966 836287 592892 846523 291368 137823 623268 459603 501834 78685 605526 938231 277103 417645 578506 140657 620413 275797 973051 151036 777683 369335 529288 927991 945427 37678 483191 286207 292185 737172 832311 932628 374780 15477 597819 519824 246907 639424 339719 432823 544507 537234 935310 785950 952576 706823 418946 513650 366693 290988 933630 123384 636147 547877 200019 675692 532499 536582 138802 804802 34896 20421 798675 345830 365243 724895 946548 960798 327559 482820 150921 507679 910400 761535 713763 996030 79616 354263 945666 211600 748938 829337 211061 875171 600677 465298 346606 654894 860835 794144 488280 176916 835517 150570 991439 21134 123944 317039 427068 674762 230415 671877 750334 757539 927325 337907 439943 491971 258454 18891 82329 839350 236649 746633 277566 328577 591440 18861 134922 587019 532990 674202 52602 661198 333670 434921 419006 382893 162038 271017 210044 567796 52883 256315 942030 426877 381855 427018 302609 765630 390033 577794 94874 946812 142169 70912 51354 897601 69293 888658 811791 86228 272549 853487 535786 757156 987142 156472 725200 377987 738754 17469 302254 642495 965680 141021 603496 681522 941538 240595 514885 532620 613182 233440 360125 430843 139224 284643 992925 734357 32828 677497 95645 979591 913576 695301 927551 598599 209412 860754 609119 990734 639637 574372 448569 702892 48779 391270 361640 486582 329711 467005 822256 510525 41954 322732 922548 443295 794507 428714 956129 55520 608503 191219 723000 456644 662390 92799 739293 458110 606417 805605 538931 24566 326086 873541 514350 859364 752891 480524 952410 940316 947640 811597 84421 650248 468073 400177 761371 936447 959965 234710 387029 915108 42456 705264 241246 356263 220509 538597 244685 397971 643228 839695 288809 349163 886963 867422 48729 818693 259173 526660 550505 651464 693100 610499 262521 274930 692436 861876 182836 187549 638565 844520 936822 221244 538344 527073 218842 893449 464267 477594 118604 865591 224523 646773 30265 643497 871990 746712 207160 845138 930320 893179 185484 803696 396178 450520 640639 845326 196016 18471 840128 189756 506622 696979 685347 331505 513234 346336 263813 195355 643602 329796 413310 524958 791854 718542 100213 428193 109898 458627 670818 487481 173424 870384 482715 957831 4646 799174 733280 562937 213559 450909 987483 167450 428108 622050 969913 221461 180579 543399 581217 867249 119177 691642 781464 550534 816818 64777 731288 717138 731698 308197 366281 168647 803630 117967 150066 777396 723018 597223 226109 592824 898780 765661 89862 433980 732693 548909 948371 553239 175750 446249 834174 218163 424649 545678 5205 147065 222691 505868 866732 503379 609754 279985 523900 807521 431279 561220 545176 710855 355739 779405 652339 620292 217746 32460 127025 502827 825895 940253 317560 315927 937396 740394 881209 318853 276847 638113 939080 184667 217102 603032 513334 499843 249754 333732 577204 576668 483888 592222 883936 395088 690488 50271 838502 238139 201811 724913 14434 850925 196517 241115 378527 243312 274267 592744 503757 186913 750325 63218 120316 948104 626991 102454 413978 42044 535851 711115 369284 295521 451017 537690 655239 673219 390834 962153 576705 328266 818828 654952 397346 106611 210653 853231 517171 696004 79715 857582 829222 766090 962324 827025 677676 579569 293358 623262 854577 411217 134901 355154 329800 922379 756150 604666 449954 175172 812937 272907 389308 672657 896081 767907 893317 78421 468213 85252 369500 813176 112098 352642 492059 970789 610694 173139 621466 657039 374489 1402 988731 980805 887264 563967 442551 352098 166272 288445 143769 882933 812135 673164 27501 67243 851312 724995 857654 885431 968176 733552 211214 750030 203552 555978 349765 877675 813712 758024 207381 566922 525411 119941 187766 455345 781744 637182 402047 681843 912961 678062 785566 828835 116416 558343 473161 501999 128578 93846 401341 862340 99860 637220 471953 31030 529055 102957 770091 246166 121675 403470 3197 117367 741644 672727 915678 804631 924348 356662 965121 924604 809317 888040 153201 589691 589799 802972 255491 164741 679431 